*SENSE:Maximize
NAME          MODEL
ROWS
 N  OBJ
 L  C0000000
 L  C0000001
 L  C0000002
COLUMNS
    MARK      'MARKER'                 'INTORG'
    X0000001  C0000000   1.000000000000e+00
    X0000001  C0000001   2.500000000000e+00
    X0000001  C0000002   2.000000000000e+00
    X0000001  OBJ        2.000000000000e+01
    MARK      'MARKER'                 'INTEND'
    MARK      'MARKER'                 'INTORG'
    X0000001  C0000000   1.000000000000e+00
    X0000001  C0000001   2.500000000000e+00
    X0000001  C0000002   2.000000000000e+00
    X0000001  OBJ        4.000000000000e+01
    MARK      'MARKER'                 'INTEND'
RHS
    RHS       C0000000   3.000000000000e+01
    RHS       C0000001   6.000000000000e+01
    RHS       C0000002   2.200000000000e+01
BOUNDS
 LO BND       X0000001   0.000000000000e+00
 LO BND       X0000001   0.000000000000e+00
ENDATA
